NAME : instances/clustered-diverse-tsp/instance-28.tsp
COMMENT : No Comment
TYPE : TSP
DIMENSION: 50
EDGE_WEIGHT_TYPE : EUC_2D
NODE_COORD_SECTION
1 99 569 
2 1511 911 
3 1098 1156 
4 224 1844 
5 599 1276 
6 1265 201 
7 113 1856 
8 1734 768 
9 1464 943 
10 275 1902 
11 1207 1262 
12 227 1914 
13 283 1993 
14 131 612 
15 265 1862 
16 1819 444 
17 1261 161 
18 1168 1214 
19 1445 1010 
20 638 1468 
21 1147 1578 
22 161 1926 
23 1215 216 
24 89 514 
25 729 1366 
26 587 1414 
27 1211 58 
28 697 1387 
29 1278 146 
30 1369 985 
31 1118 1629 
32 1126 1598 
33 69 531 
34 224 1904 
35 698 1406 
36 295 1968 
37 1487 946 
38 1076 1252 
39 12 616 
40 16 593 
41 158 1836 
42 1743 798 
43 248 516 
44 1323 215 
45 1215 77 
46 69 634 
47 262 1848 
48 660 1317 
49 260 628 
50 265 1958 
EOF
